%chk=bridg_1_numb_1_Don_1_Accep_7-td.chk
%nprocs=4
%mem=10GB
# CAM-B3LYP 6-31g* TD nosymm IOp(9/40=4) scf=xqc

Title

0 1
6 0.883646 -1.308345 -0.069486
6 1.753064 1.002039 -0.312265
6 2.158062 -1.253284 -0.594241
6 2.648428 0.046010 -0.730180
16 0.284910 0.288107 0.258809
1 2.727313 -2.123990 -0.863646
1 3.619161 0.300254 -1.115739
6 0.076331 -2.472958 0.207186
7 -2.291869 -5.847821 1.033037
6 -1.691860 -7.092273 1.274895
6 -0.515739 -7.178424 2.018559
6 -2.271827 -8.260144 0.781964
6 0.067859 -8.408007 2.254967
1 -0.068469 -6.277219 2.411839
6 -1.684863 -9.485751 1.030645
1 -3.181641 -8.197827 0.203049
6 -0.512771 -9.566213 1.764562
1 0.977712 -8.462306 2.834283
1 -2.142281 -10.383398 0.641638
1 -0.055436 -10.525269 1.954207
6 -1.510267 -4.731630 0.759931
6 -0.302408 -4.855881 0.066632
6 -1.913004 -3.456697 1.170024
6 0.472714 -3.751584 -0.201807
1 0.016383 -5.831114 -0.270500
6 -1.135883 -2.356179 0.896116
1 -2.837875 -3.341967 1.715340
1 1.390460 -3.879767 -0.753476
1 -1.458029 -1.380741 1.230221
6 -3.690228 -5.743537 1.069842
6 -4.423013 -6.452173 2.020637
6 -4.364588 -4.940070 0.151564
6 -5.800938 -6.356888 2.047983
1 -3.904373 -7.073655 2.735883
6 -5.742148 -4.845000 0.192357
1 -3.801942 -4.397155 -0.593755
6 -6.466616 -5.552390 1.137748
1 -6.357709 -6.908918 2.790679
1 -6.253562 -4.220795 -0.525368
1 -7.543023 -5.477943 1.164252
6 1.947808 2.438193 -0.318175
8 2.945261 2.999580 -0.705966
8 0.882364 3.109462 0.162400
1 1.058578 4.061944 0.138116


