%chk=bridg_1_numb_1_Don_1_Accep_1-td.chk
%nprocs=4
%mem=10GB
# CAM-B3LYP 6-31g* TD nosymm IOp(9/40=4) scf=xqc

Title

0 1
6 0.911792 -1.409192 0.117045
6 1.795451 0.926856 -0.072666
6 2.217216 -1.343768 -0.307152
6 2.710819 -0.038496 -0.412221
16 0.287778 0.189681 0.389255
1 2.813452 -2.209952 -0.530545
1 3.715247 0.179596 -0.728093
6 0.085559 -2.571807 0.338899
7 -2.335813 -5.946693 0.999551
6 -1.755040 -7.176020 1.339748
6 -0.657589 -7.226881 2.198436
6 -2.272953 -8.365284 0.828499
6 -0.090348 -8.441957 2.529959
1 -0.258495 -6.309212 2.605324
6 -1.703699 -9.575963 1.172597
1 -3.120754 -8.331121 0.159978
6 -0.609820 -9.621152 2.021329
1 0.758007 -8.468251 3.197907
1 -2.112741 -10.490094 0.768226
1 -0.165796 -10.568829 2.285410
6 -1.535434 -4.828889 0.780949
6 -0.268012 -4.958638 0.206557
6 -1.980584 -3.550688 1.128878
6 0.524510 -3.854564 -0.007600
1 0.085590 -5.938078 -0.080233
6 -1.185861 -2.450082 0.908798
1 -2.953534 -3.431863 1.582064
1 1.491954 -3.986750 -0.465906
1 -1.544125 -1.471100 1.193069
6 -3.729367 -5.852365 0.880972
6 -4.559341 -6.547012 1.759857
6 -4.303284 -5.069880 -0.120239
6 -5.932276 -6.459460 1.634942
1 -4.119656 -7.151457 2.539728
6 -5.677347 -4.982163 -0.231621
1 -3.664971 -4.537046 -0.809839
6 -6.498052 -5.676182 0.642313
1 -6.564557 -7.000637 2.323278
1 -6.109782 -4.374214 -1.012560
1 -7.571243 -5.607621 0.549942
6 1.949524 2.361811 -0.060856
6 1.097164 4.569289 0.327987
6 0.902472 3.201383 0.333455
6 3.146174 2.979753 -0.441651
6 3.226185 4.359283 -0.407207
7 2.231622 5.147494 -0.032813
1 0.305143 5.243235 0.627996
1 -0.044561 2.781305 0.637801
1 3.995983 2.396991 -0.758490
1 4.138090 4.866412 -0.695639


