%chk=bridg_1_numb_1_Don_1_Accep_19-td.chk
%nprocs=4
%mem=10GB
# CAM-B3LYP 6-31g* TD nosymm IOp(9/40=4) scf=xqc

Title

0 1
6 0.921455 -1.459856 0.066481
6 1.819960 0.871959 -0.146569
6 2.221081 -1.404763 -0.378362
6 2.721959 -0.104168 -0.496179
16 0.314512 0.144873 0.341252
1 2.807241 -2.275828 -0.608443
1 3.722981 0.101816 -0.829441
6 0.091346 -2.615620 0.305368
7 -2.343885 -5.969469 1.015032
6 -1.768459 -7.203536 1.349763
6 -0.663065 -7.262397 2.197452
6 -2.301806 -8.388583 0.845068
6 -0.102627 -8.481929 2.524430
1 -0.252563 -6.347672 2.599604
6 -1.739156 -9.603724 1.184501
1 -3.156311 -8.347773 0.185563
6 -0.637079 -9.657102 2.022074
1 0.752085 -8.514786 3.183864
1 -2.159950 -10.514777 0.785436
1 -0.198324 -10.608176 2.282572
6 -1.539537 -4.859640 0.780550
6 -0.276320 -5.001654 0.198637
6 -1.974771 -3.574982 1.119293
6 0.520605 -3.904395 -0.031885
1 0.069694 -5.985587 -0.081636
6 -1.175439 -2.481404 0.883400
1 -2.943564 -3.446214 1.578455
1 1.483871 -4.046629 -0.495736
1 -1.525471 -1.497530 1.160784
6 -3.739198 -5.866556 0.918652
6 -4.558370 -6.548979 1.816768
6 -4.324381 -5.089584 -0.080151
6 -5.932701 -6.454457 1.713339
1 -4.109422 -7.149639 2.594254
6 -5.699606 -4.994820 -0.170098
1 -3.694210 -4.566948 -0.784870
6 -6.509856 -5.676388 0.723184
1 -6.556834 -6.986165 2.416253
1 -6.141188 -4.391371 -0.949334
1 -7.583952 -5.602442 0.647497
6 1.984970 2.306063 -0.143396
6 3.193137 2.894685 -0.543384
6 3.340936 4.266935 -0.537054
6 2.285874 5.058953 -0.132572
6 1.082982 4.512434 0.265294
6 0.933258 3.140447 0.257949
1 4.015091 2.273543 -0.860285
1 4.256421 4.743902 -0.847020
1 0.281577 5.170600 0.560459
1 -0.003440 2.698252 0.563501
16 2.503347 6.813919 -0.082655
8 3.490570 7.215187 -1.029404
8 1.238062 7.486860 -0.058470
8 3.131828 6.980796 1.406241
1 2.528526 7.494289 1.945227


