%chk=bridg_1_numb_1_Don_1_Accep_16-td.chk
%nprocs=4
%mem=10GB
# CAM-B3LYP 6-31g* TD nosymm IOp(9/40=4) scf=xqc

Title

0 1
6 0.917129 -1.457354 0.159288
6 1.798812 0.882175 -0.039947
6 2.241797 -1.393000 -0.198904
6 2.733405 -0.087127 -0.309511
16 0.273674 0.144761 0.361996
1 2.853527 -2.260058 -0.371175
1 3.752519 0.126813 -0.576862
6 0.086220 -2.619350 0.365970
7 -2.350390 -5.992316 0.981884
6 -1.782539 -7.206874 1.389491
6 -0.734053 -7.224808 2.308622
6 -2.263935 -8.414346 0.885124
6 -0.178841 -8.425500 2.706248
1 -0.363510 -6.292822 2.709903
6 -1.707446 -9.610261 1.295309
1 -3.073331 -8.405937 0.169813
6 -0.662189 -9.622780 2.204295
1 0.631324 -8.426120 3.420532
1 -2.087851 -10.538721 0.895615
1 -0.227855 -10.559088 2.520025
6 -1.544819 -4.874827 0.777916
6 -0.247705 -5.011085 0.276271
6 -2.014633 -3.591256 1.068351
6 0.549714 -3.907665 0.076878
1 0.125804 -5.995331 0.034645
6 -1.214760 -2.491419 0.863119
1 -3.011371 -3.467423 1.465041
1 1.541367 -4.045200 -0.324553
1 -1.592364 -1.507633 1.101928
6 -3.735030 -5.910994 0.781008
6 -4.610752 -6.588865 1.628129
6 -4.254638 -5.157763 -0.271100
6 -5.974620 -6.513963 1.422188
1 -4.213681 -7.170335 2.447336
6 -5.620413 -5.082352 -0.463568
1 -3.580538 -4.637875 -0.936075
6 -6.486483 -5.759876 0.378975
1 -6.642615 -7.041974 2.086629
1 -6.010331 -4.497130 -1.283312
1 -7.552919 -5.701124 0.223243
6 1.945203 2.319390 -0.053710
6 3.154482 2.919214 -0.424904
6 3.281887 4.292551 -0.433036
6 2.209176 5.091868 -0.073268
6 1.001874 4.517513 0.295184
6 0.873429 3.145824 0.304915
1 3.995257 2.306338 -0.708959
1 4.209811 4.766258 -0.715886
1 0.177605 5.156586 0.571367
1 -0.064941 2.694230 0.593405
15 2.400838 6.882902 -0.084098
8 3.682330 7.449619 -0.518617
8 1.980087 7.294766 1.406043
1 2.475784 8.070925 1.669850
8 1.160086 7.441361 -0.955629
1 1.492140 7.788318 -1.782832


