%chk=bridg_1_numb_1_Don_1_Accep_9-td.chk
%nprocs=4
%mem=10GB
# CAM-B3LYP 6-31g* TD nosymm IOp(9/40=4) scf=xqc

Title

0 1
6 0.820555 -1.356575 0.555544
6 1.683581 0.990062 0.553966
6 2.157986 -1.251753 0.206305
6 2.640287 0.048699 0.205369
16 0.154966 0.207652 0.886959
1 2.773983 -2.098394 -0.035146
1 3.654708 0.303469 -0.038438
6 0.013556 -2.540876 0.658435
7 -2.373527 -5.982185 0.974743
6 -1.793115 -7.237072 1.224874
6 -0.748515 -7.364132 2.138706
6 -2.271717 -8.371490 0.572472
6 -0.189961 -8.603702 2.384492
1 -0.385351 -6.488620 2.656848
6 -1.711136 -9.607734 0.830434
1 -3.081114 -8.275113 -0.136188
6 -0.667686 -9.729347 1.733425
1 0.617357 -8.691749 3.096138
1 -2.087496 -10.480199 0.317610
1 -0.230576 -10.696163 1.930441
6 -1.588602 -4.848697 0.870957
6 -0.273556 -4.926425 0.393816
6 -2.087646 -3.591871 1.238727
6 0.506596 -3.800844 0.289736
1 0.122560 -5.883601 0.089253
6 -1.303496 -2.470374 1.133988
1 -3.093474 -3.511769 1.622346
1 1.507864 -3.894141 -0.099419
1 -1.702115 -1.512931 1.436660
6 -3.769663 -5.903965 0.832939
6 -4.599499 -6.659161 1.658997
6 -4.337000 -5.087717 -0.143774
6 -5.971507 -6.594192 1.508884
1 -4.161630 -7.291843 2.417047
6 -5.710352 -5.024069 -0.281081
1 -3.695652 -4.511694 -0.794694
6 -6.532597 -5.775823 0.542254
1 -6.606001 -7.181183 2.155934
1 -6.139960 -4.389721 -1.041898
1 -7.604699 -5.725280 0.429965
6 1.785726 2.405052 0.666406
6 2.841531 4.633413 0.593603
8 1.858079 5.244880 0.928864
8 4.013208 5.227826 0.325907
1 3.933904 6.187105 0.443443
6 2.908001 3.169859 0.429500
6 4.149240 2.651194 0.030715
7 5.179570 2.261948 -0.296609
6 0.577017 3.043083 1.065890
7 -0.461760 3.402641 1.390958


